Solver command line: ['C:\\Program Files\\gurobi1102\\win64\\bin\\gurobi.bat']

Set parameter Username
Academic license - for non-commercial use only - expires 2025-07-11
Read LP format model from file C:\Users\PAULWI~1\AppData\Local\Temp\tmpd7cyn5hy.pyomo.lp
Reading time = 0.14 seconds
objective: 17978 rows, 16799 columns, 40808 nonzeros
Set parameter TimeLimit to value 1000
Set parameter MIPGap to value 0.08
Gurobi Optimizer version 11.0.2 build v11.0.2rc0 (win64 - Windows 10.0 (19045.2))

CPU model: Intel(R) Xeon(R) CPU E5-1607 v2 @ 3.00GHz, instruction set [SSE2|AVX]
Thread count: 4 physical cores, 4 logical processors, using up to 4 threads

Optimize a model with 17978 rows, 16799 columns and 40808 nonzeros
Model fingerprint: 0xb6bbb61e
Model has 167 quadratic constraints
Variable types: 14448 continuous, 2351 integer (2016 binary)
Coefficient statistics:
  Matrix range     [6e-03, 1e+03]
  QMatrix range    [1e+00, 1e+00]
  Objective range  [4e+01, 3e+02]
  Bounds range     [1e+00, 3e+00]
  RHS range        [4e-04, 1e+04]
Presolve removed 16137 rows and 14285 columns
Presolve time: 0.15s
Presolved: 1841 rows, 2514 columns, 6863 nonzeros
Variable types: 2013 continuous, 501 integer (501 binary)
Found heuristic solution: objective -469317.7866

Root relaxation: objective -1.496248e+06, 1126 iterations, 0.02 seconds (0.02 work units)

    Nodes    |    Current Node    |     Objective Bounds      |     Work
 Expl Unexpl |  Obj  Depth IntInf | Incumbent    BestBd   Gap | It/Node Time

     0     0 -1496248.4    0    7 -469317.79 -1496248.4   219%     -    0s
H    0     0                    -1491598.759 -1496248.4  0.31%     -    0s

Explored 1 nodes (1126 simplex iterations) in 0.23 seconds (0.09 work units)
Thread count was 4 (of 4 available processors)

Solution count 2: -1.4916e+06 -469318 

Optimal solution found (tolerance 8.00e-02)
Best objective -1.491598759107e+06, best bound -1.496248391262e+06, gap 0.3117%

